(set-info :smt-lib-version 2.6)
(set-logic LRA)
(set-info :source |
   Monniaux, David; Quantifier Elimination by Lazy Model Enumeration, CAV 2010
|)
(set-info :category "random")
; ./Mjollnir_examples/B5/formula_195.m
(set-info :status unknown)
(assert
 (forall ((|v17:0| Real) )(forall ((|v16:1| Real) )(forall ((|v15:2| Real) )(forall ((|v14:3| Real) )(forall ((|v13:4| Real) )(forall ((|v12:5| Real) )(exists ((|v11:6| Real) )(exists ((|v10:7| Real) )(exists ((|v9:8| Real) )(exists ((|v8:9| Real) )(exists ((|v7:10| Real) )(exists ((|v6:11| Real) )(forall ((|v5:12| Real) )(forall ((|v4:13| Real) )(forall ((|v3:14| Real) )(forall ((|v2:15| Real) )(forall ((|v1:16| Real) )(forall ((|v0:17| Real) )(let ((?x27 (- 5)))
(let ((?x526 (+ (+ (* (- 12) |v9:8|) (* 7 |v8:9|)) (* 10 |v5:12|))))
(let ((?x86 8))
(let ((?x14 (- 20)))
(let ((?x431 (* ?x14 |v13:4|)))
(let ((?x518 (+ (+ (* ?x86 |v14:3|) (* (- 15) |v12:5|)) (* 17 |v1:16|))))
(let ((?x36 (- 12)))
(let ((?x115 (- 10)))
(let ((?x363 (* ?x115 |v15:2|)))
(let ((?x512 (+ (+ (+ (* ?x14 |v1:16|) (* (- 11) |v0:17|)) ?x363) (* (- 9) |v6:11|))))
(let ((?x40 7))
(let ((?x90 14))
(let ((?x320 (* ?x90 |v17:0|)))
(let ((?x504 (+ (+ (* (- 2) |v15:2|) (* ?x115 |v13:4|)) (* (- 14) |v16:1|))))
(let (($x521 (and (and (<= (+ ?x504 ?x320) ?x40) (<= ?x512 ?x36)) (<= (+ ?x518 ?x431) ?x86))))
(let ((?x120 2))
(let ((?x54 18))
(let ((?x228 (* ?x54 |v11:6|)))
(let ((?x495 (+ (+ (* (- 18) |v7:10|) (* (- 2) |v5:12|)) (* (- 6) |v17:0|))))
(let ((?x180 (- 15)))
(let ((?x488 (+ (+ (* ?x14 |v16:1|) (* 17 |v8:9|)) (* (- 18) |v17:0|))))
(let (($x498 (and (<= (+ ?x488 (* (- 16) |v11:6|)) ?x180) (<= (+ ?x495 ?x228) ?x120))))
(let ((?x45 6))
(let ((?x481 (+ (+ (* 16 |v12:5|) (* 13 |v13:4|)) (* ?x86 |v3:14|))))
(let ((?x149 11))
(let ((?x475 (+ (+ (+ (* 20 |v2:15|) (* ?x90 |v1:16|)) (* ?x27 |v6:11|)) (* 19 |v2:15|))))
(let (($x499 (and (or (<= ?x475 ?x149) (<= (+ ?x481 (* (- 18) |v15:2|)) ?x45)) $x498)))
(let ((?x176 (- 19)))
(let ((?x464 (+ (+ (* (- 17) |v2:15|) (* (- 2) |v11:6|)) (* (- 1) |v14:3|))))
(let ((?x239 5))
(let ((?x456 (+ (+ (* (- 1) |v13:4|) (* 0 |v16:1|)) (* (- 7) |v17:0|))))
(let (($x468 (and (<= (+ ?x456 (* (- 14) |v2:15|)) ?x239) (<= (+ ?x464 (* (- 3) |v15:2|)) ?x176))))
(let ((?x101 16))
(let ((?x449 (+ (+ (* (- 11) |v7:10|) (* 0 |v5:12|)) (* (- 8) |v16:1|))))
(let ((?x155 (- 17)))
(let ((?x209 (* (- 9) |v17:0|)))
(let ((?x443 (+ (+ (+ (* 0 |v11:6|) (* (- 7) |v5:12|)) ?x209) (* (- 16) |v8:9|))))
(let (($x500 (or (and (or (<= ?x443 ?x155) (<= (+ ?x449 (* ?x40 |v13:4|)) ?x101)) $x468) $x499)))
(let ((?x250 (- 14)))
(let ((?x430 (+ (+ (* 10 |v12:5|) (* ?x86 |v17:0|)) (* (- 11) |v8:9|))))
(let ((?x424 (+ (+ (+ (* ?x176 |v15:2|) (* ?x45 |v17:0|)) (* (- 11) |v13:4|)) (* ?x176 |v13:4|))))
(let ((?x65 (- 16)))
(let ((?x416 (+ (+ (+ (* 12 |v6:11|) (* ?x180 |v7:10|)) (* ?x149 |v16:1|)) (* 17 |v6:11|))))
(let ((?x127 4))
(let ((?x406 (+ (+ (* (- 7) |v0:17|) (* (- 18) |v0:17|)) (* (- 3) |v8:9|))))
(let (($x435 (and (or (<= (+ ?x406 (* (- 2) |v3:14|)) ?x127) (<= ?x416 ?x65)) (and (<= ?x424 ?x120) (<= (+ ?x430 ?x431) ?x250)))))
(let ((?x192 (- 18)))
(let ((?x399 (+ (+ (+ (* ?x115 |v17:0|) |v1:16|) (* ?x192 |v1:16|)) (* (- 4) |v15:2|))))
(let ((?x222 12))
(let ((?x10 (- 1)))
(let ((?x57 (* ?x10 |v5:12|)))
(let ((?x394 (+ (+ (+ (* 9 |v17:0|) (* ?x127 |v15:2|)) ?x57) (* (- 6) |v15:2|))))
(let ((?x111 19))
(let ((?x385 (+ (+ (* (- 3) |v9:8|) (* ?x90 |v7:10|)) (* 15 |v0:17|))))
(let (($x402 (or (<= (+ ?x385 (* ?x176 |v4:13|)) ?x111) (or (<= ?x394 ?x222) (<= ?x399 ?x192)))))
(let ((?x376 (+ (+ (+ (* (- 2) |v7:10|) (* ?x86 |v6:11|)) (* ?x54 |v5:12|)) (* ?x120 |v13:4|))))
(let ((?x368 (+ (+ (+ (* 17 |v8:9|) ?x363) (* ?x65 |v16:1|)) (* ?x155 |v5:12|))))
(let ((?x359 (+ (+ (+ (* ?x10 |v11:6|) (* 10 |v15:2|)) (* ?x222 |v12:5|)) (* ?x120 |v5:12|))))
(let ((?x32 (- 11)))
(let ((?x349 (+ (+ (* (- 8) |v7:10|) (* 10 |v10:7|)) (* 17 |v12:5|))))
(let (($x379 (or (or (<= (+ ?x349 (* ?x90 |v6:11|)) ?x32) (<= ?x359 ?x54)) (and (<= ?x368 ?x45) (<= ?x376 ?x149)))))
(let ((?x338 (* ?x115 |v17:0|)))
(let ((?x337 (+ (+ (* 0 |v16:1|) (* 13 |v4:13|)) (* ?x176 |v12:5|))))
(let ((?x93 (- 7)))
(let ((?x41 (* ?x40 |v2:15|)))
(let ((?x331 (+ (+ (+ (* ?x40 |v17:0|) (* ?x155 |v13:4|)) (* (- 13) |v7:10|)) ?x41)))
(let ((?x116 (* ?x115 |v9:8|)))
(let (($x324 (<= (+ (+ (+ (* 13 |v15:2|) ?x320) (* ?x155 |v8:9|)) ?x116) ?x120)))
(let ((?x317 (+ (+ (+ (* ?x180 |v12:5|) (* (- 8) |v5:12|)) (* ?x149 |v17:0|)) (* ?x176 |v1:16|))))
(let (($x342 (and (and (<= ?x317 ?x239) $x324) (and (<= ?x331 ?x93) (<= (+ ?x337 ?x338) ?x155)))))
(let (($x531 (or (or (and $x342 $x379) (or $x402 $x435)) (and $x500 (or $x521 (<= (+ ?x526 |v4:13|) ?x27))))))
(let ((?x303 (+ (+ (+ (* ?x10 |v2:15|) (* (- 3) |v1:16|)) (* ?x27 |v6:11|)) (* ?x54 |v3:14|))))
(let ((?x294 (+ (+ (+ (* ?x54 |v4:13|) (* ?x149 |v5:12|)) (* ?x120 |v1:16|)) (* ?x40 |v15:2|))))
(let ((?x284 (+ (+ (* ?x45 |v0:17|) (* (- 4) |v6:11|)) (* 20 |v8:9|))))
(let ((?x272 20))
(let ((?x278 (+ (+ (+ (* (- 4) |v9:8|) (* ?x272 |v13:4|)) (* ?x120 |v17:0|)) (* ?x10 |v9:8|))))
(let (($x307 (or (or (<= ?x278 ?x272) (<= (+ ?x284 (* (- 8) |v14:3|)) ?x155)) (or (<= ?x294 ?x27) (<= ?x303 1)))))
(let ((?x266 (+ (+ (+ (* 0 |v12:5|) (* ?x239 |v5:12|)) (* ?x54 |v15:2|)) (* ?x45 |v14:3|))))
(let ((?x171 17))
(let ((?x258 (+ (+ (+ (* ?x93 |v0:17|) (* (- 4) |v16:1|)) (* ?x155 |v9:8|)) (* ?x149 |v2:15|))))
(let ((?x249 (+ (+ (+ (* (- 13) |v16:1|) (* ?x176 |v0:17|)) (* ?x155 |v8:9|)) (* ?x120 |v3:14|))))
(let ((?x167 (- 13)))
(let ((?x241 (+ (+ (+ (* (- 3) |v16:1|) (* ?x115 |v13:4|)) (* ?x93 |v11:6|)) (* ?x239 |v4:13|))))
(let (($x269 (or (or (<= ?x241 ?x167) (<= ?x249 ?x250)) (and (<= ?x258 ?x171) (<= ?x266 ?x101)))))
(let (($x230 (<= (+ (+ (+ (* ?x149 |v4:13|) (* 9 |v1:16|)) |v5:12|) ?x228) ?x36)))
(let ((?x221 (+ (+ (+ (* ?x180 |v6:11|) (* (- 2) |v10:7|)) (* ?x192 |v7:10|)) (* ?x155 |v6:11|))))
(let ((?x212 (+ (+ (+ (* (- 6) |v16:1|) (* ?x180 |v9:8|)) ?x209) (* ?x54 |v1:16|))))
(let ((?x134 (- 8)))
(let ((?x199 (+ (+ (+ (* ?x192 |v1:16|) (* ?x134 |v4:13|)) (* 0 |v4:13|)) (* ?x192 |v6:11|))))
(let ((?x48 (- 4)))
(let ((?x189 (+ (+ (+ (* ?x180 |v3:14|) (* ?x32 |v14:3|)) (* 0 |v14:3|)) (* ?x45 |v11:6|))))
(let ((?x175 (+ (+ (+ (* 9 |v11:6|) (* ?x167 |v5:12|)) (* ?x171 |v10:7|)) (* ?x36 |v7:10|))))
(let ((?x81 (- 3)))
(let ((?x163 (+ (+ (+ (* ?x155 |v8:9|) (* 15 |v11:6|)) (* ?x93 |v0:17|)) (* ?x27 |v10:7|))))
(let (($x202 (and (and (<= ?x163 ?x81) (<= ?x175 ?x176)) (and (<= ?x189 ?x48) (<= ?x199 ?x134)))))
(let (($x309 (and (or $x202 (and (<= ?x212 ?x14) (and (<= ?x221 ?x222) $x230))) (or $x269 $x307))))
(let ((?x19 (- 6)))
(let ((?x151 (+ (+ (+ |v8:9| (* ?x127 |v10:7|)) (* 9 |v11:6|)) (* ?x149 |v3:14|))))
(let ((?x135 (* ?x134 |v4:13|)))
(let (($x137 (<= (+ (+ (+ (* ?x45 |v5:12|) (* ?x127 |v9:8|)) (* ?x19 |v7:10|)) ?x135) ?x19)))
(let ((?x122 (+ (+ (+ (* (- 2) |v12:5|) (* ?x111 |v16:1|)) ?x116) (* ?x120 |v10:7|))))
(let ((?x103 (+ (+ (+ (* ?x45 |v4:13|) |v14:3|) (* 13 |v3:14|)) (* ?x101 |v16:1|))))
(let ((?x92 (+ (+ (+ (* ?x81 |v16:1|) (* ?x54 |v8:9|)) (* ?x86 |v2:15|)) (* ?x90 |v13:4|))))
(let (($x139 (or (or (<= ?x92 ?x93) (<= ?x103 ?x14)) (and (<= ?x122 3) $x137))))
(let ((?x75 (+ (+ (+ (* ?x45 |v13:4|) (* ?x19 |v12:5|)) (* 13 |v5:12|)) (* ?x14 |v9:8|))))
(let ((?x64 (+ (+ (+ (* ?x54 |v4:13|) ?x57) (* ?x32 |v13:4|)) (* 15 |v3:14|))))
(let (($x49 (<= (+ (+ (+ (* ?x32 |v15:2|) (* ?x36 |v8:9|)) ?x41) (* ?x45 |v3:14|)) ?x48)))
(let ((?x26 (+ (+ (+ (* ?x10 |v13:4|) (* ?x14 |v16:1|)) (* ?x19 |v1:16|)) (* 13 |v2:15|))))
(let (($x140 (or (or (or (<= ?x26 ?x27) $x49) (and (<= ?x64 ?x65) (<= ?x75 ?x10))) $x139)))
(or (or (or $x140 (<= ?x151 ?x19)) $x309) $x531)))))))))))))))))))))))))))))))))))))))))))))))))))))))))))))))))))))))))))))))))))))))))))))))))))))))))))))))
)
)
)
)
)
)
)
)
)
)
)
)
)
)
)
)
)
)
(check-sat)
(exit)

